NAME : explosion
TYPE : TSP
DIMENSION : 50
EDGE_WEIGHT_TYPE : EUC_2D
NODE_COORD_SECTION
1 970861 439447
2 698626 648810
3 549884 246195
4 541739 361800
5 44952 900687
6 369807 334567
7 132505 604650
8 993525 146278
9 954987 314951
10 560811 128510
11 22206 194156
12 122425 165596
13 776238 419974
14 890241 332492
15 493680 251935
16 270416 33347
17 808890 23359
18 673279 412168
19 573050 312100
20 246262 182808
21 530828 172668
22 947947 184876
23 686395 42284
24 802328 363757
25 443370 131432
26 791731 753265
27 402890 239756
28 257690 308805
29 613828 343068
30 609922 6804
31 72515 266327
32 368562 404763
33 355877 447862
34 998916 524950
35 374742 69930
36 512913 369060
37 3033 324837
38 163595 690903
39 977717 510151
40 367437 363689
41 941344 596005
42 235280 141288
43 91534 929306
44 828685 516225
45 357305 74660
46 756660 937040
47 522164 361428
48 116347 238971
49 598202 355916
50 727413 603053
EOF
